NAME: PointSet_Angle_15_6
TYPE: TSP
COMMENT: Points chosen discrete uniformly at random out of ${0, \ldots, 500}^2$.
DIMENSION: 15
EDGE_WEIGHT_TYPE: EUC_2D
NODE_COORD_SECTION
1 396 378
2 211 389
3 149 304
4 447 4
5 170 482
6 174 426
7 267 235
8 337 53
9 459 201
10 202 415
11 63 230
12 103 311
13 479 237
14 153 385
15 41 297
EOF
